sat
(:max-memory          19.17
 :memory              18.17
 :num-allocs          1766108011
 :rlimit-count        347436
 :sls-constraints     3884
 :sls-ddfw-flips      3919789.00
 :sls-ddfw-reinits    28
 :sls-ddfw-restarts   3037
 :sls-ddfw-shifts     3321055.00
 :solve-eqs-elim-vars 5
 :solve-eqs-steps     12
 :time                4.85
 :total-time          4.87)
